42405.64,65.19,79.06
41000.82,67.43,81.77
38769.14,71.31,86.48
39419.76,70.13,85.05
37466.58,73.79,89.48
35777.22,77.27,93.71
35706.34,77.42,93.89
40857.79,67.66,82.05
37741.12,73.25,88.83
38057.51,72.64,88.09
40780.68,67.79,82.21
36802.41,75.12,91.1
37829.84,73.08,88.62
36999.91,74.72,90.61
41289.44,66.96,81.2
42187.67,65.53,79.47
41287.59,66.96,81.2
42352.02,65.28,79.16
38072.96,72.61,88.06
42188.07,65.53,79.47
